p edge 1000 3192
e 1 2 1
e 1 1000 1
e 1 3 1
e 1 999 1
e 1 813 1
e 1 444 1
e 2 3 1
e 2 4 1
e 2 1000 1
e 2 821 1
e 2 472 1
e 3 4 1
e 3 5 1
e 3 545 1
e 3 580 1
e 3 129 1
e 3 891 1
e 4 5 1
e 4 6 1
e 4 21 1
e 5 6 1
e 5 7 1
e 5 169 1
e 6 7 1
e 6 8 1
e 6 272 1
e 7 8 1
e 7 9 1
e 7 43 1
e 7 13 1
e 8 9 1
e 8 10 1
e 8 148 1
e 8 478 1
e 8 68 1
e 8 260 1
e 9 10 1
e 9 11 1
e 9 471 1
e 9 488 1
e 10 11 1
e 10 12 1
e 10 122 1
e 10 620 1
e 10 975 1
e 11 12 1
e 11 13 1
e 11 204 1
e 11 855 1
e 11 647 1
e 12 13 1
e 12 14 1
e 12 982 1
e 12 506 1
e 12 751 1
e 13 14 1
e 13 15 1
e 13 631 1
e 13 63 1
e 13 287 1
e 14 15 1
e 14 16 1
e 14 918 1
e 15 16 1
e 15 17 1
e 15 173 1
e 16 17 1
e 16 18 1
e 16 908 1
e 16 853 1
e 17 18 1
e 17 19 1
e 17 949 1
e 18 19 1
e 18 20 1
e 18 699 1
e 18 389 1
e 19 20 1
e 19 21 1
e 19 620 1
e 19 150 1
e 19 84 1
e 19 199 1
e 19 725 1
e 20 21 1
e 20 22 1
e 20 416 1
e 20 27 1
e 20 933 1
e 21 22 1
e 21 23 1
e 21 882 1
e 22 23 1
e 22 24 1
e 22 124 1
e 23 24 1
e 23 25 1
e 23 575 1
e 23 526 1
e 23 654 1
e 24 25 1
e 24 26 1
e 24 780 1
e 24 818 1
e 25 26 1
e 25 27 1
e 25 215 1
e 26 27 1
e 26 28 1
e 26 784 1
e 27 28 1
e 27 29 1
e 28 29 1
e 28 30 1
e 28 901 1
e 28 676 1
e 29 30 1
e 29 31 1
e 29 502 1
e 30 31 1
e 30 32 1
e 30 278 1
e 31 32 1
e 31 33 1
e 31 595 1
e 31 512 1
e 32 33 1
e 32 34 1
e 32 494 1
e 32 864 1
e 32 945 1
e 33 34 1
e 33 35 1
e 33 742 1
e 33 546 1
e 34 35 1
e 34 36 1
e 34 53 1
e 34 846 1
e 35 36 1
e 35 37 1
e 35 301 1
e 35 746 1
e 35 225 1
e 35 972 1
e 36 37 1
e 36 38 1
e 36 708 1
e 37 38 1
e 37 39 1
e 37 614 1
e 37 162 1
e 37 993 1
e 38 39 1
e 38 40 1
e 38 963 1
e 39 40 1
e 39 41 1
e 39 598 1
e 39 587 1
e 39 912 1
e 40 41 1
e 40 42 1
e 40 283 1
e 40 914 1
e 40 600 1
e 41 42 1
e 41 43 1
e 41 95 1
e 41 405 1
e 41 719 1
e 42 43 1
e 42 44 1
e 42 758 1
e 43 44 1
e 43 45 1
e 43 630 1
e 43 811 1
e 43 994 1
e 44 45 1
e 44 46 1
e 44 433 1
e 44 242 1
e 44 643 1
e 45 46 1
e 45 47 1
e 45 240 1
e 45 728 1
e 46 47 1
e 46 48 1
e 46 387 1
e 46 478 1
e 47 48 1
e 47 49 1
e 47 108 1
e 48 49 1
e 48 50 1
e 48 684 1
e 49 50 1
e 49 51 1
e 49 678 1
e 50 51 1
e 50 52 1
e 50 904 1
e 50 301 1
e 50 82 1
e 50 128 1
e 50 479 1
e 51 52 1
e 51 53 1
e 51 415 1
e 51 617 1
e 51 876 1
e 52 53 1
e 52 54 1
e 52 470 1
e 52 434 1
e 53 54 1
e 53 55 1
e 53 719 1
e 53 87 1
e 54 55 1
e 54 56 1
e 54 923 1
e 55 56 1
e 55 57 1
e 55 961 1
e 55 285 1
e 55 969 1
e 56 57 1
e 56 58 1
e 56 634 1
e 56 65 1
e 56 165 1
e 57 58 1
e 57 59 1
e 57 347 1
e 58 59 1
e 58 60 1
e 58 269 1
e 58 135 1
e 58 925 1
e 59 60 1
e 59 61 1
e 59 897 1
e 59 215 1
e 59 307 1
e 59 448 1
e 59 783 1
e 60 61 1
e 60 62 1
e 60 84 1
e 60 746 1
e 60 690 1
e 61 62 1
e 61 63 1
e 61 414 1
e 62 63 1
e 62 64 1
e 62 198 1
e 62 501 1
e 62 203 1
e 63 64 1
e 63 65 1
e 63 118 1
e 63 909 1
e 64 65 1
e 64 66 1
e 64 911 1
e 64 932 1
e 65 66 1
e 65 67 1
e 65 482 1
e 65 698 1
e 65 983 1
e 66 67 1
e 66 68 1
e 66 826 1
e 66 183 1
e 67 68 1
e 67 69 1
e 67 704 1
e 67 872 1
e 67 402 1
e 68 69 1
e 68 70 1
e 68 382 1
e 68 229 1
e 68 499 1
e 68 644 1
e 69 70 1
e 69 71 1
e 69 451 1
e 69 173 1
e 69 641 1
e 69 781 1
e 70 71 1
e 70 72 1
e 70 563 1
e 70 677 1
e 71 72 1
e 71 73 1
e 71 700 1
e 72 73 1
e 72 74 1
e 72 347 1
e 72 80 1
e 72 429 1
e 72 554 1
e 72 655 1
e 73 74 1
e 73 75 1
e 73 996 1
e 73 131 1
e 74 75 1
e 74 76 1
e 74 838 1
e 74 638 1
e 75 76 1
e 75 77 1
e 75 931 1
e 76 77 1
e 76 78 1
e 76 396 1
e 76 694 1
e 76 132 1
e 76 531 1
e 77 78 1
e 77 79 1
e 77 224 1
e 77 455 1
e 77 633 1
e 77 925 1
e 78 79 1
e 78 80 1
e 78 449 1
e 78 680 1
e 79 80 1
e 79 81 1
e 79 672 1
e 79 904 1
e 80 81 1
e 80 82 1
e 80 470 1
e 80 537 1
e 80 309 1
e 80 318 1
e 81 82 1
e 81 83 1
e 81 202 1
e 81 976 1
e 82 83 1
e 82 84 1
e 83 84 1
e 83 85 1
e 83 853 1
e 83 354 1
e 84 85 1
e 84 86 1
e 84 681 1
e 84 725 1
e 85 86 1
e 85 87 1
e 85 452 1
e 85 232 1
e 86 87 1
e 86 88 1
e 86 192 1
e 86 117 1
e 86 201 1
e 86 424 1
e 87 88 1
e 87 89 1
e 87 604 1
e 87 505 1
e 87 480 1
e 88 89 1
e 88 90 1
e 88 361 1
e 88 492 1
e 88 127 1
e 88 248 1
e 88 277 1
e 89 90 1
e 89 91 1
e 89 601 1
e 89 699 1
e 90 91 1
e 90 92 1
e 90 430 1
e 90 142 1
e 91 92 1
e 91 93 1
e 91 787 1
e 92 93 1
e 92 94 1
e 92 709 1
e 92 301 1
e 92 363 1
e 93 94 1
e 93 95 1
e 93 618 1
e 94 95 1
e 94 96 1
e 94 192 1
e 94 306 1
e 94 717 1
e 95 96 1
e 95 97 1
e 95 321 1
e 95 645 1
e 95 499 1
e 95 758 1
e 95 809 1
e 95 837 1
e 96 97 1
e 96 98 1
e 96 651 1
e 96 749 1
e 97 98 1
e 97 99 1
e 97 141 1
e 97 231 1
e 98 99 1
e 98 100 1
e 98 836 1
e 98 830 1
e 99 100 1
e 99 101 1
e 100 101 1
e 100 102 1
e 100 604 1
e 100 450 1
e 100 798 1
e 101 102 1
e 101 103 1
e 101 318 1
e 101 940 1
e 102 103 1
e 102 104 1
e 102 215 1
e 102 551 1
e 103 104 1
e 103 105 1
e 103 248 1
e 103 460 1
e 103 843 1
e 104 105 1
e 104 106 1
e 104 457 1
e 104 497 1
e 105 106 1
e 105 107 1
e 105 353 1
e 105 250 1
e 105 330 1
e 106 107 1
e 106 108 1
e 106 467 1
e 106 360 1
e 106 176 1
e 106 368 1
e 107 108 1
e 107 109 1
e 107 385 1
e 107 618 1
e 107 576 1
e 108 109 1
e 108 110 1
e 108 684 1
e 109 110 1
e 109 111 1
e 109 816 1
e 109 114 1
e 109 215 1
e 109 240 1
e 109 834 1
e 110 111 1
e 110 112 1
e 110 340 1
e 110 280 1
e 111 112 1
e 111 113 1
e 111 895 1
e 112 113 1
e 112 114 1
e 112 398 1
e 113 114 1
e 113 115 1
e 113 918 1
e 113 408 1
e 113 472 1
e 113 542 1
e 113 780 1
e 114 115 1
e 114 116 1
e 114 300 1
e 114 485 1
e 115 116 1
e 115 117 1
e 115 349 1
e 115 541 1
e 116 117 1
e 116 118 1
e 116 522 1
e 116 338 1
e 116 448 1
e 117 118 1
e 117 119 1
e 117 423 1
e 118 119 1
e 118 120 1
e 118 781 1
e 119 120 1
e 119 121 1
e 119 769 1
e 119 223 1
e 119 331 1
e 119 423 1
e 120 121 1
e 120 122 1
e 120 504 1
e 120 495 1
e 121 122 1
e 121 123 1
e 121 549 1
e 122 123 1
e 122 124 1
e 122 514 1
e 123 124 1
e 123 125 1
e 124 125 1
e 124 126 1
e 124 526 1
e 125 126 1
e 125 127 1
e 125 701 1
e 126 127 1
e 126 128 1
e 126 608 1
e 126 826 1
e 126 222 1
e 126 377 1
e 126 712 1
e 127 128 1
e 127 129 1
e 128 129 1
e 128 130 1
e 128 299 1
e 128 201 1
e 129 130 1
e 129 131 1
e 129 783 1
e 130 131 1
e 130 132 1
e 130 912 1
e 130 404 1
e 130 174 1
e 131 132 1
e 131 133 1
e 132 133 1
e 132 134 1
e 132 924 1
e 132 446 1
e 132 867 1
e 132 898 1
e 133 134 1
e 133 135 1
e 133 956 1
e 133 160 1
e 133 148 1
e 133 442 1
e 134 135 1
e 134 136 1
e 134 526 1
e 134 139 1
e 134 391 1
e 134 780 1
e 135 136 1
e 135 137 1
e 135 848 1
e 136 137 1
e 136 138 1
e 136 481 1
e 136 739 1
e 136 204 1
e 137 138 1
e 137 139 1
e 137 389 1
e 137 635 1
e 138 139 1
e 138 140 1
e 138 546 1
e 138 261 1
e 138 528 1
e 139 140 1
e 139 141 1
e 139 516 1
e 140 141 1
e 140 142 1
e 140 197 1
e 140 682 1
e 141 142 1
e 141 143 1
e 141 158 1
e 142 143 1
e 142 144 1
e 142 439 1
e 142 706 1
e 142 762 1
e 142 803 1
e 143 144 1
e 143 145 1
e 143 558 1
e 143 297 1
e 143 555 1
e 143 996 1
e 144 145 1
e 144 146 1
e 144 588 1
e 144 401 1
e 144 225 1
e 144 658 1
e 145 146 1
e 145 147 1
e 145 269 1
e 145 273 1
e 145 415 1
e 145 484 1
e 146 147 1
e 146 148 1
e 146 622 1
e 147 148 1
e 147 149 1
e 147 298 1
e 147 321 1
e 147 347 1
e 147 473 1
e 148 149 1
e 148 150 1
e 149 150 1
e 149 151 1
e 149 883 1
e 149 588 1
e 149 832 1
e 150 151 1
e 150 152 1
e 150 190 1
e 150 381 1
e 150 562 1
e 151 152 1
e 151 153 1
e 151 380 1
e 151 271 1
e 152 153 1
e 152 154 1
e 152 502 1
e 152 447 1
e 152 686 1
e 152 873 1
e 153 154 1
e 153 155 1
e 153 281 1
e 153 962 1
e 154 155 1
e 154 156 1
e 154 567 1
e 155 156 1
e 155 157 1
e 156 157 1
e 156 158 1
e 156 636 1
e 156 783 1
e 156 424 1
e 157 158 1
e 157 159 1
e 157 463 1
e 158 159 1
e 158 160 1
e 158 588 1
e 158 625 1
e 158 484 1
e 159 160 1
e 159 161 1
e 159 691 1
e 159 593 1
e 160 161 1
e 160 162 1
e 160 433 1
e 160 361 1
e 160 447 1
e 160 660 1
e 161 162 1
e 161 163 1
e 161 185 1
e 161 504 1
e 161 466 1
e 161 591 1
e 161 669 1
e 162 163 1
e 162 164 1
e 162 931 1
e 163 164 1
e 163 165 1
e 163 184 1
e 164 165 1
e 164 166 1
e 164 817 1
e 164 551 1
e 164 198 1
e 164 375 1
e 164 493 1
e 165 166 1
e 165 167 1
e 165 371 1
e 166 167 1
e 166 168 1
e 166 389 1
e 166 982 1
e 166 561 1
e 167 168 1
e 167 169 1
e 167 358 1
e 167 320 1
e 167 462 1
e 167 775 1
e 167 965 1
e 168 169 1
e 168 170 1
e 168 305 1
e 168 834 1
e 168 252 1
e 168 511 1
e 168 855 1
e 169 170 1
e 169 171 1
e 169 242 1
e 170 171 1
e 170 172 1
e 170 261 1
e 170 751 1
e 171 172 1
e 171 173 1
e 171 891 1
e 171 349 1
e 172 173 1
e 172 174 1
e 172 949 1
e 172 655 1
e 173 174 1
e 173 175 1
e 173 269 1
e 173 533 1
e 174 175 1
e 174 176 1
e 175 176 1
e 175 177 1
e 175 820 1
e 175 653 1
e 175 836 1
e 176 177 1
e 176 178 1
e 176 878 1
e 177 178 1
e 177 179 1
e 177 975 1
e 177 558 1
e 177 224 1
e 177 270 1
e 177 991 1
e 178 179 1
e 178 180 1
e 178 689 1
e 178 286 1
e 178 351 1
e 178 430 1
e 179 180 1
e 179 181 1
e 179 608 1
e 180 181 1
e 180 182 1
e 180 697 1
e 180 328 1
e 181 182 1
e 181 183 1
e 181 669 1
e 182 183 1
e 182 184 1
e 182 283 1
e 183 184 1
e 183 185 1
e 184 185 1
e 184 186 1
e 184 356 1
e 184 348 1
e 185 186 1
e 185 187 1
e 185 378 1
e 185 287 1
e 185 938 1
e 186 187 1
e 186 188 1
e 186 652 1
e 186 406 1
e 186 930 1
e 187 188 1
e 187 189 1
e 187 432 1
e 187 301 1
e 187 821 1
e 188 189 1
e 188 190 1
e 188 933 1
e 188 275 1
e 188 994 1
e 189 190 1
e 189 191 1
e 189 706 1
e 190 191 1
e 190 192 1
e 190 343 1
e 190 464 1
e 191 192 1
e 191 193 1
e 191 612 1
e 192 193 1
e 192 194 1
e 192 340 1
e 192 836 1
e 192 687 1
e 192 696 1
e 192 933 1
e 193 194 1
e 193 195 1
e 193 300 1
e 193 246 1
e 193 393 1
e 194 195 1
e 194 196 1
e 194 296 1
e 194 356 1
e 195 196 1
e 195 197 1
e 195 264 1
e 195 665 1
e 196 197 1
e 196 198 1
e 196 605 1
e 196 850 1
e 196 240 1
e 197 198 1
e 197 199 1
e 197 249 1
e 197 434 1
e 198 199 1
e 198 200 1
e 199 200 1
e 199 201 1
e 199 482 1
e 200 201 1
e 200 202 1
e 200 296 1
e 200 273 1
e 201 202 1
e 201 203 1
e 201 491 1
e 202 203 1
e 202 204 1
e 202 658 1
e 202 718 1
e 203 204 1
e 203 205 1
e 203 649 1
e 204 205 1
e 204 206 1
e 204 717 1
e 205 206 1
e 205 207 1
e 205 580 1
e 205 764 1
e 205 694 1
e 206 207 1
e 206 208 1
e 206 816 1
e 206 925 1
e 207 208 1
e 207 209 1
e 207 465 1
e 208 209 1
e 208 210 1
e 209 210 1
e 209 211 1
e 209 958 1
e 209 538 1
e 209 671 1
e 210 211 1
e 210 212 1
e 210 232 1
e 211 212 1
e 211 213 1
e 211 561 1
e 212 213 1
e 212 214 1
e 212 263 1
e 212 304 1
e 212 948 1
e 213 214 1
e 213 215 1
e 213 492 1
e 213 579 1
e 214 215 1
e 214 216 1
e 214 798 1
e 215 216 1
e 215 217 1
e 216 217 1
e 216 218 1
e 216 491 1
e 217 218 1
e 217 219 1
e 217 678 1
e 218 219 1
e 218 220 1
e 218 516 1
e 218 468 1
e 219 220 1
e 219 221 1
e 219 576 1
e 220 221 1
e 220 222 1
e 220 883 1
e 220 650 1
e 221 222 1
e 221 223 1
e 221 551 1
e 221 672 1
e 222 223 1
e 222 224 1
e 222 418 1
e 223 224 1
e 223 225 1
e 223 381 1
e 223 976 1
e 224 225 1
e 224 226 1
e 224 873 1
e 224 289 1
e 225 226 1
e 225 227 1
e 225 879 1
e 226 227 1
e 226 228 1
e 226 693 1
e 226 894 1
e 226 455 1
e 227 228 1
e 227 229 1
e 227 862 1
e 227 627 1
e 227 295 1
e 227 817 1
e 228 229 1
e 228 230 1
e 229 230 1
e 229 231 1
e 229 539 1
e 230 231 1
e 230 232 1
e 230 261 1
e 230 602 1
e 230 912 1
e 231 232 1
e 231 233 1
e 231 661 1
e 231 673 1
e 231 377 1
e 232 233 1
e 232 234 1
e 232 804 1
e 233 234 1
e 233 235 1
e 233 287 1
e 233 901 1
e 234 235 1
e 234 236 1
e 235 236 1
e 235 237 1
e 235 455 1
e 235 357 1
e 235 693 1
e 235 742 1
e 236 237 1
e 236 238 1
e 236 968 1
e 236 599 1
e 237 238 1
e 237 239 1
e 237 409 1
e 237 378 1
e 238 239 1
e 238 240 1
e 238 792 1
e 239 240 1
e 239 241 1
e 239 847 1
e 239 509 1
e 240 241 1
e 240 242 1
e 240 420 1
e 240 460 1
e 240 860 1
e 241 242 1
e 241 243 1
e 241 491 1
e 241 246 1
e 241 254 1
e 242 243 1
e 242 244 1
e 242 576 1
e 242 853 1
e 243 244 1
e 243 245 1
e 243 437 1
e 243 379 1
e 243 998 1
e 244 245 1
e 244 246 1
e 244 682 1
e 244 755 1
e 245 246 1
e 245 247 1
e 245 871 1
e 245 532 1
e 245 374 1
e 245 540 1
e 246 247 1
e 246 248 1
e 246 610 1
e 246 742 1
e 247 248 1
e 247 249 1
e 247 818 1
e 247 256 1
e 248 249 1
e 248 250 1
e 248 302 1
e 249 250 1
e 249 251 1
e 249 283 1
e 250 251 1
e 250 252 1
e 250 709 1
e 250 410 1
e 250 365 1
e 251 252 1
e 251 253 1
e 251 978 1
e 252 253 1
e 252 254 1
e 252 926 1
e 252 777 1
e 252 849 1
e 253 254 1
e 253 255 1
e 253 963 1
e 254 255 1
e 254 256 1
e 255 256 1
e 255 257 1
e 255 990 1
e 256 257 1
e 256 258 1
e 256 594 1
e 257 258 1
e 257 259 1
e 257 354 1
e 258 259 1
e 258 260 1
e 258 313 1
e 258 853 1
e 259 260 1
e 259 261 1
e 259 484 1
e 259 279 1
e 259 943 1
e 260 261 1
e 260 262 1
e 261 262 1
e 261 263 1
e 261 270 1
e 262 263 1
e 262 264 1
e 262 962 1
e 263 264 1
e 263 265 1
e 263 574 1
e 264 265 1
e 264 266 1
e 264 840 1
e 264 965 1
e 264 339 1
e 265 266 1
e 265 267 1
e 266 267 1
e 266 268 1
e 266 913 1
e 266 515 1
e 267 268 1
e 267 269 1
e 267 547 1
e 267 520 1
e 268 269 1
e 268 270 1
e 268 649 1
e 268 878 1
e 269 270 1
e 269 271 1
e 269 948 1
e 269 432 1
e 269 997 1
e 270 271 1
e 270 272 1
e 271 272 1
e 271 273 1
e 271 291 1
e 272 273 1
e 272 274 1
e 272 635 1
e 272 953 1
e 272 964 1
e 273 274 1
e 273 275 1
e 273 459 1
e 273 754 1
e 274 275 1
e 274 276 1
e 274 649 1
e 274 786 1
e 275 276 1
e 275 277 1
e 275 679 1
e 275 762 1
e 276 277 1
e 276 278 1
e 276 809 1
e 276 626 1
e 277 278 1
e 277 279 1
e 277 826 1
e 277 303 1
e 277 622 1
e 277 791 1
e 278 279 1
e 278 280 1
e 279 280 1
e 279 281 1
e 279 823 1
e 280 281 1
e 280 282 1
e 280 388 1
e 281 282 1
e 281 283 1
e 281 461 1
e 281 453 1
e 282 283 1
e 282 284 1
e 282 988 1
e 282 757 1
e 282 716 1
e 282 984 1
e 283 284 1
e 283 285 1
e 283 959 1
e 284 285 1
e 284 286 1
e 284 848 1
e 284 293 1
e 285 286 1
e 285 287 1
e 285 427 1
e 285 955 1
e 286 287 1
e 286 288 1
e 286 757 1
e 287 288 1
e 287 289 1
e 287 771 1
e 287 400 1
e 287 944 1
e 288 289 1
e 288 290 1
e 289 290 1
e 289 291 1
e 289 953 1
e 289 395 1
e 289 519 1
e 290 291 1
e 290 292 1
e 290 676 1
e 291 292 1
e 291 293 1
e 292 293 1
e 292 294 1
e 292 350 1
e 292 673 1
e 293 294 1
e 293 295 1
e 293 875 1
e 294 295 1
e 294 296 1
e 294 759 1
e 294 924 1
e 295 296 1
e 295 297 1
e 295 452 1
e 296 297 1
e 296 298 1
e 296 427 1
e 296 446 1
e 296 456 1
e 296 619 1
e 296 967 1
e 297 298 1
e 297 299 1
e 297 940 1
e 297 801 1
e 298 299 1
e 298 300 1
e 298 775 1
e 299 300 1
e 299 301 1
e 299 981 1
e 299 645 1
e 299 784 1
e 299 884 1
e 300 301 1
e 300 302 1
e 300 856 1
e 300 951 1
e 300 952 1
e 301 302 1
e 301 303 1
e 301 599 1
e 302 303 1
e 302 304 1
e 303 304 1
e 303 305 1
e 303 390 1
e 303 566 1
e 304 305 1
e 304 306 1
e 304 618 1
e 305 306 1
e 305 307 1
e 305 843 1
e 306 307 1
e 306 308 1
e 306 854 1
e 306 337 1
e 307 308 1
e 307 309 1
e 307 713 1
e 307 483 1
e 308 309 1
e 308 310 1
e 308 404 1
e 309 310 1
e 309 311 1
e 310 311 1
e 310 312 1
e 310 608 1
e 310 775 1
e 311 312 1
e 311 313 1
e 311 704 1
e 311 657 1
e 312 313 1
e 312 314 1
e 312 340 1
e 313 314 1
e 313 315 1
e 313 376 1
e 314 315 1
e 314 316 1
e 314 617 1
e 315 316 1
e 315 317 1
e 315 362 1
e 316 317 1
e 316 318 1
e 316 423 1
e 316 926 1
e 317 318 1
e 317 319 1
e 317 562 1
e 317 358 1
e 317 586 1
e 318 319 1
e 318 320 1
e 318 432 1
e 319 320 1
e 319 321 1
e 319 518 1
e 319 704 1
e 320 321 1
e 320 322 1
e 320 649 1
e 321 322 1
e 321 323 1
e 321 521 1
e 322 323 1
e 322 324 1
e 322 483 1
e 322 831 1
e 322 966 1
e 323 324 1
e 323 325 1
e 324 325 1
e 324 326 1
e 324 593 1
e 324 707 1
e 324 798 1
e 325 326 1
e 325 327 1
e 325 384 1
e 325 477 1
e 325 710 1
e 326 327 1
e 326 328 1
e 327 328 1
e 327 329 1
e 327 928 1
e 327 489 1
e 328 329 1
e 328 330 1
e 328 449 1
e 328 726 1
e 329 330 1
e 329 331 1
e 329 903 1
e 329 996 1
e 329 479 1
e 330 331 1
e 330 332 1
e 331 332 1
e 331 333 1
e 332 333 1
e 332 334 1
e 333 334 1
e 333 335 1
e 333 799 1
e 334 335 1
e 334 336 1
e 334 392 1
e 335 336 1
e 335 337 1
e 335 974 1
e 335 863 1
e 336 337 1
e 336 338 1
e 336 590 1
e 337 338 1
e 337 339 1
e 337 796 1
e 337 435 1
e 338 339 1
e 338 340 1
e 339 340 1
e 339 341 1
e 339 737 1
e 340 341 1
e 340 342 1
e 340 412 1
e 341 342 1
e 341 343 1
e 342 343 1
e 342 344 1
e 342 590 1
e 342 463 1
e 343 344 1
e 343 345 1
e 343 630 1
e 343 472 1
e 344 345 1
e 344 346 1
e 344 955 1
e 345 346 1
e 345 347 1
e 345 398 1
e 345 939 1
e 346 347 1
e 346 348 1
e 346 726 1
e 346 776 1
e 346 881 1
e 347 348 1
e 347 349 1
e 347 764 1
e 348 349 1
e 348 350 1
e 348 865 1
e 348 863 1
e 349 350 1
e 349 351 1
e 349 522 1
e 349 595 1
e 350 351 1
e 350 352 1
e 350 961 1
e 350 812 1
e 351 352 1
e 351 353 1
e 351 788 1
e 352 353 1
e 352 354 1
e 352 882 1
e 353 354 1
e 353 355 1
e 354 355 1
e 354 356 1
e 354 770 1
e 354 929 1
e 355 356 1
e 355 357 1
e 356 357 1
e 356 358 1
e 356 672 1
e 357 358 1
e 357 359 1
e 357 562 1
e 358 359 1
e 358 360 1
e 358 756 1
e 359 360 1
e 359 361 1
e 359 460 1
e 360 361 1
e 360 362 1
e 361 362 1
e 361 363 1
e 362 363 1
e 362 364 1
e 362 407 1
e 362 685 1
e 363 364 1
e 363 365 1
e 364 365 1
e 364 366 1
e 364 421 1
e 364 377 1
e 365 366 1
e 365 367 1
e 365 464 1
e 365 549 1
e 365 686 1
e 366 367 1
e 366 368 1
e 366 579 1
e 366 589 1
e 367 368 1
e 367 369 1
e 368 369 1
e 368 370 1
e 368 559 1
e 368 869 1
e 368 889 1
e 369 370 1
e 369 371 1
e 369 547 1
e 370 371 1
e 370 372 1
e 371 372 1
e 371 373 1
e 371 496 1
e 371 858 1
e 371 722 1
e 371 951 1
e 372 373 1
e 372 374 1
e 372 700 1
e 372 644 1
e 372 396 1
e 373 374 1
e 373 375 1
e 373 585 1
e 373 684 1
e 374 375 1
e 374 376 1
e 375 376 1
e 375 377 1
e 375 477 1
e 376 377 1
e 376 378 1
e 377 378 1
e 377 379 1
e 378 379 1
e 378 380 1
e 378 585 1
e 379 380 1
e 379 381 1
e 379 994 1
e 379 500 1
e 380 381 1
e 380 382 1
e 380 771 1
e 381 382 1
e 381 383 1
e 381 874 1
e 381 830 1
e 382 383 1
e 382 384 1
e 382 481 1
e 382 462 1
e 382 623 1
e 383 384 1
e 383 385 1
e 383 658 1
e 383 869 1
e 383 427 1
e 384 385 1
e 384 386 1
e 384 730 1
e 385 386 1
e 385 387 1
e 385 586 1
e 386 387 1
e 386 388 1
e 386 486 1
e 387 388 1
e 387 389 1
e 387 419 1
e 387 793 1
e 388 389 1
e 388 390 1
e 389 390 1
e 389 391 1
e 389 416 1
e 390 391 1
e 390 392 1
e 390 626 1
e 390 888 1
e 391 392 1
e 391 393 1
e 392 393 1
e 392 394 1
e 392 733 1
e 392 653 1
e 393 394 1
e 393 395 1
e 393 538 1
e 393 568 1
e 393 831 1
e 394 395 1
e 394 396 1
e 394 804 1
e 394 519 1
e 395 396 1
e 395 397 1
e 395 871 1
e 396 397 1
e 396 398 1
e 396 432 1
e 396 770 1
e 397 398 1
e 397 399 1
e 397 621 1
e 397 706 1
e 397 773 1
e 397 940 1
e 398 399 1
e 398 400 1
e 399 400 1
e 399 401 1
e 399 613 1
e 399 662 1
e 399 635 1
e 400 401 1
e 400 402 1
e 400 909 1
e 400 515 1
e 400 632 1
e 400 659 1
e 400 723 1
e 400 948 1
e 401 402 1
e 401 403 1
e 401 924 1
e 401 801 1
e 402 403 1
e 402 404 1
e 403 404 1
e 403 405 1
e 403 588 1
e 404 405 1
e 404 406 1
e 404 744 1
e 405 406 1
e 405 407 1
e 405 708 1
e 406 407 1
e 406 408 1
e 406 749 1
e 406 694 1
e 407 408 1
e 407 409 1
e 408 409 1
e 408 410 1
e 408 636 1
e 409 410 1
e 409 411 1
e 410 411 1
e 410 412 1
e 410 525 1
e 410 949 1
e 411 412 1
e 411 413 1
e 411 629 1
e 412 413 1
e 412 414 1
e 412 913 1
e 412 943 1
e 413 414 1
e 413 415 1
e 413 616 1
e 413 883 1
e 414 415 1
e 414 416 1
e 414 723 1
e 415 416 1
e 415 417 1
e 415 774 1
e 415 875 1
e 415 956 1
e 416 417 1
e 416 418 1
e 416 810 1
e 417 418 1
e 417 419 1
e 417 448 1
e 417 431 1
e 417 663 1
e 418 419 1
e 418 420 1
e 418 655 1
e 418 497 1
e 419 420 1
e 419 421 1
e 419 593 1
e 419 842 1
e 420 421 1
e 420 422 1
e 420 490 1
e 421 422 1
e 421 423 1
e 421 445 1
e 421 558 1
e 422 423 1
e 422 424 1
e 422 934 1
e 422 552 1
e 422 635 1
e 422 708 1
e 423 424 1
e 423 425 1
e 424 425 1
e 424 426 1
e 424 490 1
e 425 426 1
e 425 427 1
e 425 985 1
e 426 427 1
e 426 428 1
e 426 528 1
e 427 428 1
e 427 429 1
e 427 721 1
e 428 429 1
e 428 430 1
e 429 430 1
e 429 431 1
e 429 540 1
e 430 431 1
e 430 432 1
e 430 675 1
e 431 432 1
e 431 433 1
e 431 883 1
e 432 433 1
e 432 434 1
e 432 627 1
e 433 434 1
e 433 435 1
e 433 918 1
e 433 608 1
e 433 441 1
e 434 435 1
e 434 436 1
e 435 436 1
e 435 437 1
e 435 564 1
e 436 437 1
e 436 438 1
e 436 647 1
e 437 438 1
e 437 439 1
e 437 934 1
e 438 439 1
e 438 440 1
e 438 766 1
e 439 440 1
e 439 441 1
e 440 441 1
e 440 442 1
e 440 989 1
e 441 442 1
e 441 443 1
e 441 960 1
e 442 443 1
e 442 444 1
e 442 850 1
e 443 444 1
e 443 445 1
e 443 982 1
e 444 445 1
e 444 446 1
e 444 464 1
e 444 514 1
e 444 738 1
e 445 446 1
e 445 447 1
e 445 883 1
e 445 914 1
e 446 447 1
e 446 448 1
e 447 448 1
e 447 449 1
e 447 670 1
e 447 888 1
e 448 449 1
e 448 450 1
e 448 800 1
e 448 961 1
e 449 450 1
e 449 451 1
e 450 451 1
e 450 452 1
e 450 887 1
e 451 452 1
e 451 453 1
e 451 725 1
e 451 907 1
e 452 453 1
e 452 454 1
e 452 567 1
e 452 499 1
e 453 454 1
e 453 455 1
e 453 828 1
e 454 455 1
e 454 456 1
e 454 497 1
e 454 609 1
e 454 598 1
e 455 456 1
e 455 457 1
e 455 469 1
e 456 457 1
e 456 458 1
e 457 458 1
e 457 459 1
e 457 613 1
e 457 841 1
e 458 459 1
e 458 460 1
e 458 575 1
e 459 460 1
e 459 461 1
e 460 461 1
e 460 462 1
e 460 999 1
e 461 462 1
e 461 463 1
e 461 877 1
e 462 463 1
e 462 464 1
e 462 965 1
e 462 767 1
e 463 464 1
e 463 465 1
e 463 733 1
e 463 920 1
e 464 465 1
e 464 466 1
e 465 466 1
e 465 467 1
e 466 467 1
e 466 468 1
e 466 496 1
e 466 730 1
e 467 468 1
e 467 469 1
e 467 723 1
e 467 939 1
e 468 469 1
e 468 470 1
e 468 539 1
e 468 773 1
e 469 470 1
e 469 471 1
e 470 471 1
e 470 472 1
e 470 880 1
e 470 885 1
e 471 472 1
e 471 473 1
e 471 995 1
e 472 473 1
e 472 474 1
e 472 805 1
e 473 474 1
e 473 475 1
e 473 596 1
e 474 475 1
e 474 476 1
e 474 585 1
e 474 784 1
e 475 476 1
e 475 477 1
e 475 755 1
e 476 477 1
e 476 478 1
e 477 478 1
e 477 479 1
e 478 479 1
e 478 480 1
e 478 705 1
e 478 965 1
e 479 480 1
e 479 481 1
e 479 697 1
e 480 481 1
e 480 482 1
e 481 482 1
e 481 483 1
e 481 911 1
e 482 483 1
e 482 484 1
e 482 990 1
e 483 484 1
e 483 485 1
e 484 485 1
e 484 486 1
e 485 486 1
e 485 487 1
e 486 487 1
e 486 488 1
e 487 488 1
e 487 489 1
e 487 966 1
e 488 489 1
e 488 490 1
e 489 490 1
e 489 491 1
e 490 491 1
e 490 492 1
e 491 492 1
e 491 493 1
e 491 501 1
e 492 493 1
e 492 494 1
e 492 662 1
e 492 607 1
e 493 494 1
e 493 495 1
e 494 495 1
e 494 496 1
e 494 505 1
e 495 496 1
e 495 497 1
e 495 795 1
e 495 995 1
e 496 497 1
e 496 498 1
e 496 519 1
e 496 884 1
e 497 498 1
e 497 499 1
e 497 838 1
e 498 499 1
e 498 500 1
e 499 500 1
e 499 501 1
e 499 985 1
e 500 501 1
e 500 502 1
e 500 675 1
e 500 616 1
e 500 869 1
e 501 502 1
e 501 503 1
e 501 571 1
e 502 503 1
e 502 504 1
e 502 937 1
e 503 504 1
e 503 505 1
e 503 949 1
e 503 796 1
e 504 505 1
e 504 506 1
e 504 866 1
e 505 506 1
e 505 507 1
e 505 544 1
e 506 507 1
e 506 508 1
e 507 508 1
e 507 509 1
e 507 834 1
e 508 509 1
e 508 510 1
e 508 992 1
e 509 510 1
e 509 511 1
e 509 612 1
e 509 810 1
e 510 511 1
e 510 512 1
e 510 590 1
e 510 741 1
e 511 512 1
e 511 513 1
e 511 870 1
e 512 513 1
e 512 514 1
e 512 746 1
e 512 693 1
e 513 514 1
e 513 515 1
e 513 747 1
e 514 515 1
e 514 516 1
e 514 552 1
e 514 872 1
e 515 516 1
e 515 517 1
e 516 517 1
e 516 518 1
e 516 768 1
e 516 804 1
e 517 518 1
e 517 519 1
e 517 726 1
e 518 519 1
e 518 520 1
e 518 671 1
e 518 778 1
e 519 520 1
e 519 521 1
e 520 521 1
e 520 522 1
e 520 814 1
e 521 522 1
e 521 523 1
e 521 791 1
e 522 523 1
e 522 524 1
e 522 819 1
e 522 855 1
e 523 524 1
e 523 525 1
e 523 995 1
e 523 815 1
e 524 525 1
e 524 526 1
e 524 589 1
e 525 526 1
e 525 527 1
e 525 821 1
e 525 902 1
e 526 527 1
e 526 528 1
e 526 989 1
e 526 958 1
e 526 668 1
e 527 528 1
e 527 529 1
e 528 529 1
e 528 530 1
e 529 530 1
e 529 531 1
e 529 632 1
e 529 678 1
e 530 531 1
e 530 532 1
e 531 532 1
e 531 533 1
e 531 982 1
e 532 533 1
e 532 534 1
e 532 770 1
e 533 534 1
e 533 535 1
e 533 803 1
e 534 535 1
e 534 536 1
e 534 894 1
e 534 664 1
e 535 536 1
e 535 537 1
e 535 885 1
e 536 537 1
e 536 538 1
e 536 935 1
e 536 550 1
e 537 538 1
e 537 539 1
e 537 808 1
e 537 866 1
e 538 539 1
e 538 540 1
e 538 556 1
e 539 540 1
e 539 541 1
e 539 811 1
e 540 541 1
e 540 542 1
e 540 607 1
e 541 542 1
e 541 543 1
e 541 754 1
e 542 543 1
e 542 544 1
e 543 544 1
e 543 545 1
e 544 545 1
e 544 546 1
e 544 937 1
e 545 546 1
e 545 547 1
e 545 851 1
e 545 552 1
e 546 547 1
e 546 548 1
e 546 880 1
e 546 957 1
e 546 559 1
e 547 548 1
e 547 549 1
e 547 657 1
e 547 679 1
e 548 549 1
e 548 550 1
e 548 813 1
e 549 550 1
e 549 551 1
e 549 602 1
e 550 551 1
e 550 552 1
e 551 552 1
e 551 553 1
e 552 553 1
e 552 554 1
e 553 554 1
e 553 555 1
e 554 555 1
e 554 556 1
e 554 613 1
e 554 625 1
e 555 556 1
e 555 557 1
e 555 647 1
e 555 646 1
e 555 789 1
e 556 557 1
e 556 558 1
e 557 558 1
e 557 559 1
e 557 885 1
e 558 559 1
e 558 560 1
e 558 841 1
e 559 560 1
e 559 561 1
e 559 824 1
e 560 561 1
e 560 562 1
e 560 747 1
e 560 982 1
e 561 562 1
e 561 563 1
e 562 563 1
e 562 564 1
e 563 564 1
e 563 565 1
e 563 609 1
e 564 565 1
e 564 566 1
e 565 566 1
e 565 567 1
e 565 726 1
e 565 657 1
e 566 567 1
e 566 568 1
e 567 568 1
e 567 569 1
e 568 569 1
e 568 570 1
e 569 570 1
e 569 571 1
e 569 953 1
e 570 571 1
e 570 572 1
e 570 914 1
e 570 716 1
e 571 572 1
e 571 573 1
e 571 852 1
e 572 573 1
e 572 574 1
e 573 574 1
e 573 575 1
e 574 575 1
e 574 576 1
e 574 816 1
e 574 936 1
e 575 576 1
e 575 577 1
e 576 577 1
e 576 578 1
e 577 578 1
e 577 579 1
e 577 679 1
e 578 579 1
e 578 580 1
e 578 600 1
e 579 580 1
e 579 581 1
e 579 971 1
e 580 581 1
e 580 582 1
e 581 582 1
e 581 583 1
e 581 632 1
e 581 741 1
e 581 868 1
e 582 583 1
e 582 584 1
e 582 729 1
e 583 584 1
e 583 585 1
e 583 640 1
e 583 588 1
e 583 980 1
e 584 585 1
e 584 586 1
e 584 819 1
e 584 975 1
e 585 586 1
e 585 587 1
e 586 587 1
e 586 588 1
e 587 588 1
e 587 589 1
e 587 835 1
e 588 589 1
e 588 590 1
e 588 606 1
e 589 590 1
e 589 591 1
e 590 591 1
e 590 592 1
e 591 592 1
e 591 593 1
e 592 593 1
e 592 594 1
e 592 643 1
e 592 642 1
e 593 594 1
e 593 595 1
e 593 799 1
e 594 595 1
e 594 596 1
e 594 629 1
e 594 982 1
e 595 596 1
e 595 597 1
e 595 598 1
e 596 597 1
e 596 598 1
e 596 649 1
e 596 743 1
e 597 598 1
e 597 599 1
e 597 768 1
e 598 599 1
e 598 600 1
e 598 762 1
e 599 600 1
e 599 601 1
e 600 601 1
e 600 602 1
e 601 602 1
e 601 603 1
e 602 603 1
e 602 604 1
e 602 605 1
e 603 604 1
e 603 605 1
e 604 605 1
e 604 606 1
e 604 695 1
e 605 606 1
e 605 607 1
e 605 895 1
e 605 778 1
e 605 908 1
e 606 607 1
e 606 608 1
e 606 735 1
e 606 792 1
e 607 608 1
e 607 609 1
e 608 609 1
e 608 610 1
e 608 815 1
e 609 610 1
e 609 611 1
e 609 846 1
e 609 667 1
e 609 705 1
e 610 611 1
e 610 612 1
e 610 774 1
e 611 612 1
e 611 613 1
e 611 756 1
e 611 859 1
e 612 613 1
e 612 614 1
e 613 614 1
e 613 615 1
e 614 615 1
e 614 616 1
e 614 629 1
e 614 799 1
e 615 616 1
e 615 617 1
e 615 645 1
e 616 617 1
e 616 618 1
e 617 618 1
e 617 619 1
e 617 875 1
e 618 619 1
e 618 620 1
e 618 698 1
e 619 620 1
e 619 621 1
e 620 621 1
e 620 622 1
e 621 622 1
e 621 623 1
e 622 623 1
e 622 624 1
e 622 718 1
e 623 624 1
e 623 625 1
e 624 625 1
e 624 626 1
e 625 626 1
e 625 627 1
e 625 751 1
e 626 627 1
e 626 628 1
e 627 628 1
e 627 629 1
e 627 927 1
e 628 629 1
e 628 630 1
e 628 892 1
e 629 630 1
e 629 631 1
e 630 631 1
e 630 632 1
e 630 952 1
e 631 632 1
e 631 633 1
e 631 758 1
e 631 979 1
e 632 633 1
e 632 634 1
e 632 974 1
e 633 634 1
e 633 635 1
e 633 804 1
e 634 635 1
e 634 636 1
e 634 849 1
e 635 636 1
e 635 637 1
e 636 637 1
e 636 638 1
e 637 638 1
e 637 639 1
e 637 805 1
e 637 986 1
e 638 639 1
e 638 640 1
e 638 940 1
e 639 640 1
e 639 641 1
e 639 818 1
e 639 993 1
e 639 968 1
e 640 641 1
e 640 642 1
e 640 902 1
e 640 710 1
e 640 997 1
e 641 642 1
e 641 643 1
e 641 930 1
e 642 643 1
e 642 644 1
e 642 913 1
e 642 665 1
e 643 644 1
e 643 645 1
e 643 892 1
e 644 645 1
e 644 646 1
e 645 646 1
e 645 647 1
e 645 966 1
e 645 829 1
e 646 647 1
e 646 648 1
e 646 957 1
e 647 648 1
e 647 649 1
e 647 676 1
e 648 649 1
e 648 650 1
e 649 650 1
e 649 651 1
e 650 651 1
e 650 652 1
e 651 652 1
e 651 653 1
e 652 653 1
e 652 654 1
e 653 654 1
e 653 655 1
e 654 655 1
e 654 656 1
e 654 800 1
e 655 656 1
e 655 657 1
e 656 657 1
e 656 658 1
e 656 727 1
e 656 747 1
e 657 658 1
e 657 659 1
e 658 659 1
e 658 660 1
e 658 713 1
e 659 660 1
e 659 661 1
e 659 905 1
e 660 661 1
e 660 662 1
e 660 791 1
e 661 662 1
e 661 663 1
e 661 981 1
e 661 813 1
e 661 907 1
e 662 663 1
e 662 664 1
e 663 664 1
e 663 665 1
e 663 684 1
e 664 665 1
e 664 666 1
e 664 750 1
e 665 666 1
e 665 667 1
e 665 700 1
e 666 667 1
e 666 668 1
e 667 668 1
e 667 669 1
e 667 941 1
e 668 669 1
e 668 670 1
e 669 670 1
e 669 671 1
e 669 853 1
e 669 858 1
e 670 671 1
e 670 672 1
e 670 960 1
e 671 672 1
e 671 673 1
e 671 732 1
e 671 916 1
e 672 673 1
e 672 674 1
e 673 674 1
e 673 675 1
e 674 675 1
e 674 676 1
e 674 817 1
e 675 676 1
e 675 677 1
e 675 777 1
e 676 677 1
e 676 678 1
e 676 809 1
e 677 678 1
e 677 679 1
e 678 679 1
e 678 680 1
e 679 680 1
e 679 681 1
e 679 797 1
e 679 942 1
e 680 681 1
e 680 682 1
e 680 932 1
e 681 682 1
e 681 683 1
e 682 683 1
e 682 684 1
e 682 915 1
e 683 684 1
e 683 685 1
e 684 685 1
e 684 686 1
e 685 686 1
e 685 687 1
e 685 808 1
e 685 833 1
e 686 687 1
e 686 688 1
e 687 688 1
e 687 689 1
e 687 860 1
e 688 689 1
e 688 690 1
e 688 845 1
e 689 690 1
e 689 691 1
e 689 958 1
e 690 691 1
e 690 692 1
e 690 878 1
e 691 692 1
e 691 693 1
e 692 693 1
e 692 694 1
e 693 694 1
e 693 695 1
e 694 695 1
e 694 696 1
e 694 835 1
e 694 890 1
e 695 696 1
e 695 697 1
e 695 804 1
e 695 832 1
e 696 697 1
e 696 698 1
e 697 698 1
e 697 699 1
e 698 699 1
e 698 700 1
e 699 700 1
e 699 701 1
e 699 951 1
e 699 837 1
e 700 701 1
e 700 702 1
e 700 753 1
e 700 890 1
e 701 702 1
e 701 703 1
e 701 781 1
e 702 703 1
e 702 704 1
e 702 769 1
e 702 790 1
e 703 704 1
e 703 705 1
e 704 705 1
e 704 706 1
e 704 836 1
e 704 862 1
e 705 706 1
e 705 707 1
e 705 818 1
e 705 824 1
e 706 707 1
e 706 708 1
e 707 708 1
e 707 709 1
e 707 796 1
e 708 709 1
e 708 710 1
e 708 923 1
e 708 821 1
e 708 927 1
e 709 710 1
e 709 711 1
e 709 776 1
e 710 711 1
e 710 712 1
e 710 985 1
e 711 712 1
e 711 713 1
e 711 744 1
e 711 926 1
e 712 713 1
e 712 714 1
e 712 741 1
e 713 714 1
e 713 715 1
e 713 966 1
e 714 715 1
e 714 716 1
e 715 716 1
e 715 717 1
e 715 751 1
e 715 923 1
e 716 717 1
e 716 718 1
e 717 718 1
e 717 719 1
e 718 719 1
e 718 720 1
e 719 720 1
e 719 721 1
e 720 721 1
e 720 722 1
e 721 722 1
e 721 723 1
e 722 723 1
e 722 724 1
e 723 724 1
e 723 725 1
e 724 725 1
e 724 726 1
e 724 826 1
e 725 726 1
e 725 727 1
e 726 727 1
e 726 728 1
e 726 803 1
e 726 935 1
e 727 728 1
e 727 729 1
e 728 729 1
e 728 730 1
e 728 762 1
e 728 786 1
e 729 730 1
e 729 731 1
e 729 770 1
e 729 880 1
e 729 772 1
e 730 731 1
e 730 732 1
e 730 880 1
e 730 822 1
e 731 732 1
e 731 733 1
e 731 800 1
e 731 920 1
e 732 733 1
e 732 734 1
e 732 753 1
e 733 734 1
e 733 735 1
e 733 828 1
e 734 735 1
e 734 736 1
e 734 857 1
e 735 736 1
e 735 737 1
e 736 737 1
e 736 738 1
e 737 738 1
e 737 739 1
e 737 868 1
e 738 739 1
e 738 740 1
e 738 767 1
e 739 740 1
e 739 741 1
e 740 741 1
e 740 742 1
e 740 915 1
e 741 742 1
e 741 743 1
e 741 748 1
e 741 744 1
e 742 743 1
e 742 744 1
e 743 744 1
e 743 745 1
e 743 985 1
e 743 794 1
e 744 745 1
e 744 746 1
e 745 746 1
e 745 747 1
e 745 967 1
e 745 862 1
e 746 747 1
e 746 748 1
e 747 748 1
e 747 749 1
e 748 749 1
e 748 750 1
e 748 782 1
e 749 750 1
e 749 751 1
e 750 751 1
e 750 752 1
e 751 752 1
e 751 753 1
e 752 753 1
e 752 754 1
e 753 754 1
e 753 755 1
e 753 772 1
e 754 755 1
e 754 756 1
e 755 756 1
e 755 757 1
e 755 937 1
e 756 757 1
e 756 758 1
e 756 875 1
e 757 758 1
e 757 759 1
e 757 934 1
e 758 759 1
e 758 760 1
e 759 760 1
e 759 761 1
e 760 761 1
e 760 762 1
e 761 762 1
e 761 763 1
e 762 763 1
e 762 764 1
e 763 764 1
e 763 765 1
e 764 765 1
e 764 766 1
e 764 804 1
e 765 766 1
e 765 767 1
e 765 897 1
e 766 767 1
e 766 768 1
e 767 768 1
e 767 769 1
e 768 769 1
e 768 770 1
e 769 770 1
e 769 771 1
e 769 944 1
e 770 771 1
e 770 772 1
e 770 820 1
e 771 772 1
e 771 773 1
e 772 773 1
e 772 774 1
e 773 774 1
e 773 775 1
e 774 775 1
e 774 776 1
e 774 998 1
e 775 776 1
e 775 777 1
e 776 777 1
e 776 778 1
e 776 864 1
e 776 892 1
e 776 915 1
e 776 955 1
e 777 778 1
e 777 779 1
e 778 779 1
e 778 780 1
e 779 780 1
e 779 781 1
e 780 781 1
e 780 782 1
e 781 782 1
e 781 783 1
e 782 783 1
e 782 784 1
e 783 784 1
e 783 785 1
e 784 785 1
e 784 786 1
e 784 827 1
e 784 910 1
e 785 786 1
e 785 787 1
e 786 787 1
e 786 788 1
e 787 788 1
e 787 789 1
e 787 886 1
e 788 789 1
e 788 790 1
e 789 790 1
e 789 791 1
e 790 791 1
e 790 792 1
e 790 836 1
e 791 792 1
e 791 793 1
e 791 890 1
e 792 793 1
e 792 794 1
e 792 905 1
e 793 794 1
e 793 795 1
e 794 795 1
e 794 796 1
e 795 796 1
e 795 797 1
e 796 797 1
e 796 798 1
e 796 857 1
e 797 798 1
e 797 799 1
e 797 844 1
e 798 799 1
e 798 800 1
e 799 800 1
e 799 801 1
e 800 801 1
e 800 802 1
e 801 802 1
e 801 803 1
e 801 844 1
e 802 803 1
e 802 804 1
e 802 806 1
e 802 899 1
e 803 804 1
e 803 805 1
e 803 924 1
e 804 805 1
e 804 806 1
e 805 806 1
e 805 807 1
e 806 807 1
e 806 808 1
e 806 925 1
e 807 808 1
e 807 809 1
e 808 809 1
e 808 810 1
e 809 810 1
e 809 811 1
e 809 947 1
e 810 811 1
e 810 812 1
e 811 812 1
e 811 813 1
e 812 813 1
e 812 814 1
e 813 814 1
e 813 815 1
e 814 815 1
e 814 816 1
e 815 816 1
e 815 817 1
e 816 817 1
e 816 818 1
e 816 974 1
e 817 818 1
e 817 819 1
e 818 819 1
e 818 820 1
e 818 951 1
e 819 820 1
e 819 821 1
e 820 821 1
e 820 822 1
e 820 907 1
e 821 822 1
e 821 823 1
e 822 823 1
e 822 824 1
e 822 869 1
e 823 824 1
e 823 825 1
e 823 928 1
e 824 825 1
e 824 826 1
e 825 826 1
e 825 827 1
e 826 827 1
e 826 828 1
e 826 943 1
e 827 828 1
e 827 829 1
e 828 829 1
e 828 830 1
e 829 830 1
e 829 831 1
e 830 831 1
e 830 832 1
e 831 832 1
e 831 833 1
e 832 833 1
e 832 834 1
e 832 886 1
e 832 895 1
e 833 834 1
e 833 835 1
e 834 835 1
e 834 836 1
e 834 883 1
e 834 971 1
e 835 836 1
e 835 837 1
e 836 837 1
e 836 838 1
e 837 838 1
e 837 839 1
e 838 839 1
e 838 840 1
e 838 996 1
e 839 840 1
e 839 841 1
e 839 857 1
e 840 841 1
e 840 842 1
e 841 842 1
e 841 843 1
e 842 843 1
e 842 844 1
e 843 844 1
e 843 845 1
e 844 845 1
e 844 846 1
e 845 846 1
e 845 847 1
e 846 847 1
e 846 848 1
e 846 852 1
e 847 848 1
e 847 849 1
e 847 935 1
e 848 849 1
e 848 850 1
e 849 850 1
e 849 851 1
e 850 851 1
e 850 852 1
e 851 852 1
e 851 853 1
e 851 989 1
e 852 853 1
e 852 854 1
e 852 966 1
e 853 854 1
e 853 855 1
e 854 855 1
e 854 856 1
e 855 856 1
e 855 857 1
e 856 857 1
e 856 858 1
e 857 858 1
e 857 859 1
e 858 859 1
e 858 860 1
e 859 860 1
e 859 861 1
e 860 861 1
e 860 862 1
e 861 862 1
e 861 863 1
e 862 863 1
e 862 864 1
e 863 864 1
e 863 865 1
e 863 923 1
e 864 865 1
e 864 866 1
e 865 866 1
e 865 867 1
e 866 867 1
e 866 868 1
e 867 868 1
e 867 869 1
e 868 869 1
e 868 870 1
e 868 877 1
e 869 870 1
e 869 871 1
e 870 871 1
e 870 872 1
e 871 872 1
e 871 873 1
e 871 889 1
e 872 873 1
e 872 874 1
e 873 874 1
e 873 875 1
e 874 875 1
e 874 876 1
e 874 927 1
e 874 969 1
e 875 876 1
e 875 877 1
e 876 877 1
e 876 878 1
e 876 973 1
e 877 878 1
e 877 879 1
e 878 879 1
e 878 880 1
e 879 880 1
e 879 881 1
e 880 881 1
e 880 882 1
e 880 996 1
e 880 916 1
e 881 882 1
e 881 883 1
e 881 974 1
e 882 883 1
e 882 884 1
e 883 884 1
e 883 885 1
e 883 911 1
e 884 885 1
e 884 886 1
e 885 886 1
e 885 887 1
e 886 887 1
e 886 888 1
e 887 888 1
e 887 889 1
e 888 889 1
e 888 890 1
e 889 890 1
e 889 891 1
e 890 891 1
e 890 892 1
e 891 892 1
e 891 893 1
e 892 893 1
e 892 894 1
e 893 894 1
e 893 895 1
e 893 896 1
e 893 956 1
e 894 895 1
e 894 896 1
e 894 915 1
e 895 896 1
e 895 897 1
e 896 897 1
e 896 898 1
e 897 898 1
e 897 899 1
e 898 899 1
e 898 900 1
e 898 983 1
e 899 900 1
e 899 901 1
e 900 901 1
e 900 902 1
e 901 902 1
e 901 903 1
e 902 903 1
e 902 904 1
e 903 904 1
e 903 905 1
e 904 905 1
e 904 906 1
e 905 906 1
e 905 907 1
e 906 907 1
e 906 908 1
e 907 908 1
e 907 909 1
e 908 909 1
e 908 910 1
e 909 910 1
e 909 911 1
e 910 911 1
e 910 912 1
e 911 912 1
e 911 913 1
e 912 913 1
e 912 914 1
e 913 914 1
e 913 915 1
e 914 915 1
e 914 916 1
e 914 981 1
e 915 916 1
e 915 917 1
e 916 917 1
e 916 918 1
e 917 918 1
e 917 919 1
e 918 919 1
e 918 920 1
e 919 920 1
e 919 921 1
e 920 921 1
e 920 922 1
e 921 922 1
e 921 923 1
e 922 923 1
e 922 924 1
e 923 924 1
e 923 925 1
e 924 925 1
e 924 926 1
e 925 926 1
e 925 927 1
e 926 927 1
e 926 928 1
e 927 928 1
e 927 929 1
e 928 929 1
e 928 930 1
e 929 930 1
e 929 931 1
e 930 931 1
e 930 932 1
e 931 932 1
e 931 933 1
e 932 933 1
e 932 934 1
e 933 934 1
e 933 935 1
e 934 935 1
e 934 936 1
e 935 936 1
e 935 937 1
e 936 937 1
e 936 938 1
e 936 992 1
e 937 938 1
e 937 939 1
e 938 939 1
e 938 940 1
e 939 940 1
e 939 941 1
e 940 941 1
e 940 942 1
e 941 942 1
e 941 943 1
e 942 943 1
e 942 944 1
e 943 944 1
e 943 945 1
e 944 945 1
e 944 946 1
e 944 980 1
e 945 946 1
e 945 947 1
e 946 947 1
e 946 948 1
e 947 948 1
e 947 949 1
e 948 949 1
e 948 950 1
e 949 950 1
e 949 951 1
e 950 951 1
e 950 952 1
e 951 952 1
e 951 953 1
e 951 987 1
e 952 953 1
e 952 954 1
e 953 954 1
e 953 955 1
e 954 955 1
e 954 956 1
e 954 971 1
e 955 956 1
e 955 957 1
e 956 957 1
e 956 958 1
e 957 958 1
e 957 959 1
e 958 959 1
e 958 960 1
e 959 960 1
e 959 961 1
e 960 961 1
e 960 962 1
e 961 962 1
e 961 963 1
e 962 963 1
e 962 964 1
e 963 964 1
e 963 965 1
e 963 991 1
e 964 965 1
e 964 966 1
e 965 966 1
e 965 967 1
e 966 967 1
e 966 968 1
e 967 968 1
e 967 969 1
e 968 969 1
e 968 970 1
e 969 970 1
e 969 971 1
e 970 971 1
e 970 972 1
e 971 972 1
e 971 973 1
e 972 973 1
e 972 974 1
e 973 974 1
e 973 975 1
e 974 975 1
e 974 976 1
e 975 976 1
e 975 977 1
e 976 977 1
e 976 978 1
e 977 978 1
e 977 979 1
e 978 979 1
e 978 980 1
e 979 980 1
e 979 981 1
e 980 981 1
e 980 982 1
e 981 982 1
e 981 983 1
e 982 983 1
e 982 984 1
e 982 986 1
e 983 984 1
e 983 985 1
e 984 985 1
e 984 986 1
e 985 986 1
e 985 987 1
e 986 987 1
e 986 988 1
e 987 988 1
e 987 989 1
e 988 989 1
e 988 990 1
e 989 990 1
e 989 991 1
e 990 991 1
e 990 992 1
e 991 992 1
e 991 993 1
e 992 993 1
e 992 994 1
e 993 994 1
e 993 995 1
e 994 995 1
e 994 996 1
e 995 996 1
e 995 997 1
e 996 997 1
e 996 998 1
e 997 998 1
e 997 999 1
e 998 999 1
e 998 1000 1
e 999 1000 1